db/data/128544922219822970414670257112088719651.z3.out
sat
-------------------
37.068749206
